0
0
0
0
21
0
0
0
0
0
0
0
0
0
0
0
0
0
0
0
0
0
0
0
0
0
1 2 1
1 3 0
1 4 0
1 5 1
1 6 1
1 7 1
1 8 1
1 9 0
1 10 0
1 11 0
1 12 0
1 13 0
1 14 1
1 15 1
1 16 1
1 17 0
1 18 1
1 19 0
1 20 1
1 21 0
2 3 1
2 4 1
2 5 0
2 6 1
2 7 1
2 8 0
2 9 0
2 10 1
2 11 0
2 12 0
2 13 1
2 14 1
2 15 1
2 16 1
2 17 0
2 18 1
2 19 0
2 20 1
2 21 1
3 4 0
3 5 1
3 6 1
3 7 0
3 8 1
3 9 1
3 10 1
3 11 0
3 12 0
3 13 0
3 14 0
3 15 1
3 16 1
3 17 0
3 18 0
3 19 1
3 20 1
3 21 1
4 5 0
4 6 0
4 7 0
4 8 1
4 9 0
4 10 1
4 11 0
4 12 1
4 13 1
4 14 1
4 15 0
4 16 1
4 17 0
4 18 1
4 19 0
4 20 1
4 21 1
5 6 1
5 7 0
5 8 1
5 9 1
5 10 1
5 11 1
5 12 1
5 13 0
5 14 1
5 15 0
5 16 1
5 17 0
5 18 1
5 19 1
5 20 0
5 21 0
6 7 1
6 8 1
6 9 0
6 10 1
6 11 1
6 12 1
6 13 1
6 14 0
6 15 0
6 16 0
6 17 0
6 18 1
6 19 1
6 20 0
6 21 0
7 8 0
7 9 1
7 10 0
7 11 1
7 12 0
7 13 1
7 14 0
7 15 0
7 16 1
7 17 1
7 18 0
7 19 1
7 20 0
7 21 0
8 9 0
8 10 0
8 11 1
8 12 1
8 13 1
8 14 0
8 15 0
8 16 1
8 17 0
8 18 1
8 19 1
8 20 1
8 21 0
9 10 0
9 11 0
9 12 0
9 13 0
9 14 0
9 15 1
9 16 0
9 17 0
9 18 0
9 19 0
9 20 1
9 21 1
10 11 0
10 12 0
10 13 1
10 14 0
10 15 0
10 16 0
10 17 0
10 18 0
10 19 0
10 20 0
10 21 1
11 12 1
11 13 1
11 14 1
11 15 0
11 16 0
11 17 0
11 18 0
11 19 1
11 20 0
11 21 0
12 13 1
12 14 1
12 15 1
12 16 1
12 17 0
12 18 1
12 19 1
12 20 1
12 21 0
13 14 0
13 15 0
13 16 0
13 17 1
13 18 1
13 19 1
13 20 1
13 21 1
14 15 0
14 16 1
14 17 1
14 18 1
14 19 0
14 20 1
14 21 1
15 16 1
15 17 1
15 18 1
15 19 1
15 20 0
15 21 0
16 17 0
16 18 1
16 19 1
16 20 0
16 21 0
17 18 1
17 19 1
17 20 0
17 21 0
18 19 1
18 20 0
18 21 0
19 20 1
19 21 0
20 21 0
